========================================================== 
File name: C:\DEGR\assets\definitions\MSRCPSP_Gen\200_5_64_5_D.def
Creation date: Wed May 03 10:45:25 CEST 2023
Website: http://imopse.ii.pwr.edu.pl/ 
Reference: 
Myszkowski P. B., Skowronski M. E., Olech L., Oslizlo K., 
Hybrid Ant Colony Optimization in solving Multi-Skill Resource-Constrained Project Scheduling Problem, 
Soft Computing, DOI: DOI 10.1007/s00500-014-1455-x 
========================================================== 
General characteristics: 
Tasks: 200
Resources: 5
Precedence relations: 62
Number of skill types: 5
========================================================== 
ResourceID 	 Salary 	 Skills 
1	 	 	81.6	 	 Q2: 1 	  Q1: 0 	 
2	 	 	29.5	 	 Q4: 0 	  Q0: 0 	  Q1: 3 	  Q3: 0 	 
3	 	 	92.1	 	 Q2: 1 	 
4	 	 	72.9	 	 Q2: 3 	  Q1: 3 	  Q0: 0 	 
5	 	 	15.5	 	 Q4: 2 	  Q1: 1 	  Q3: 1 	 
========================================================== 
TaskID 	 Duration 	 Skill 	 Predecessor IDs 
1	19	Q2:	3
2	27	Q3:	0
3	16	Q3:	1
4	30	Q1:	0
5	22	Q1:	0
6	11	Q2:	1
7	35	Q1:	0
8	31	Q3:	0
9	39	Q1:	1
10	15	Q4:	2
11	34	Q4:	0
12	19	Q4:	2
13	35	Q1:	1
14	25	Q3:	0
15	15	Q4:	0
16	37	Q4:	0
17	14	Q2:	3
18	24	Q2:	3
19	21	Q2:	3
20	30	Q2:	1
21	25	Q4:	2
22	14	Q2:	3
23	27	Q4:	0
24	40	Q2:	3
25	30	Q1:	0
26	34	Q1:	3
27	16	Q3:	0
28	22	Q1:	0
29	23	Q4:	0
30	14	Q1:	1
31	18	Q1:	1
32	30	Q4:	0
33	26	Q1:	3
34	28	Q1:	1
35	17	Q4:	0
36	17	Q4:	0
37	23	Q1:	0
38	40	Q4:	2
39	24	Q2:	3
40	23	Q4:	0
41	10	Q4:	0
42	33	Q1:	3
43	28	Q4:	2
44	19	Q2:	1
45	31	Q3:	0
46	14	Q1:	3	28
47	27	Q1:	1
48	31	Q0:	0
49	13	Q0:	0
50	36	Q2:	1
51	12	Q3:	1
52	39	Q1:	3
53	19	Q1:	0	48	36
54	34	Q1:	3
55	15	Q4:	0
56	25	Q1:	3
57	24	Q3:	1
58	38	Q1:	0
59	14	Q1:	3	48
60	15	Q0:	0
61	30	Q0:	0
62	15	Q1:	0
63	11	Q4:	0
64	11	Q3:	0
65	25	Q4:	0	17
66	14	Q1:	1
67	30	Q4:	2	44
68	33	Q1:	0
69	37	Q3:	1
70	38	Q0:	0
71	20	Q4:	0	2
72	11	Q1:	3
73	35	Q1:	0
74	16	Q0:	0	45
75	28	Q4:	0	54
76	22	Q2:	3
77	29	Q3:	0
78	38	Q3:	1
79	9	Q0:	0
80	17	Q2:	1
81	9	Q2:	1
82	40	Q1:	1
83	37	Q0:	0	39
84	9	Q1:	3	17
85	28	Q3:	1
86	37	Q2:	1
87	26	Q1:	1
88	37	Q1:	3	28
89	10	Q0:	0
90	14	Q4:	0
91	22	Q1:	1
92	29	Q4:	0	75
93	21	Q4:	0	53
94	37	Q1:	0
95	34	Q2:	1
96	12	Q2:	3
97	38	Q4:	0
98	25	Q2:	3
99	17	Q4:	2
100	28	Q4:	2
101	24	Q2:	3	60
102	23	Q3:	0
103	21	Q2:	3
104	17	Q3:	1
105	18	Q4:	0	30
106	26	Q1:	0
107	34	Q3:	1
108	17	Q2:	1
109	29	Q1:	0
110	19	Q4:	0
111	31	Q0:	0
112	31	Q4:	2
113	19	Q4:	0
114	30	Q0:	0
115	29	Q4:	0	45
116	23	Q3:	0
117	33	Q3:	1
118	32	Q1:	3
119	18	Q4:	0
120	30	Q4:	0
121	38	Q3:	0	52
122	23	Q2:	3	98
123	25	Q2:	1	109
124	39	Q1:	0	20	114	81
125	22	Q0:	0
126	27	Q4:	2
127	13	Q4:	0	58
128	13	Q2:	3
129	40	Q2:	3
130	25	Q1:	0
131	29	Q2:	1	72
132	28	Q0:	0
133	40	Q4:	2	117
134	15	Q1:	0
135	30	Q4:	2
136	39	Q1:	3	10
137	29	Q4:	2
138	39	Q1:	3	104
139	29	Q3:	1
140	32	Q4:	2	27
141	28	Q2:	1	30
142	25	Q3:	0	67
143	34	Q1:	0	56
144	23	Q1:	0
145	11	Q2:	1
146	17	Q2:	3
147	37	Q1:	3
148	10	Q0:	0
149	24	Q1:	3
150	35	Q1:	1
151	25	Q2:	3	94
152	22	Q4:	2
153	12	Q0:	0
154	33	Q1:	3
155	13	Q4:	0
156	39	Q4:	0
157	19	Q3:	0
158	19	Q1:	1
159	24	Q0:	0
160	15	Q3:	0
161	40	Q1:	1
162	18	Q3:	1	136
163	27	Q0:	0
164	29	Q1:	0
165	14	Q4:	2	12
166	12	Q3:	1	38
167	24	Q1:	0	68
168	15	Q2:	1
169	19	Q4:	0	117	86
170	32	Q1:	0
171	17	Q1:	0	73	69
172	26	Q3:	1	60
173	23	Q3:	0	15
174	27	Q2:	1
175	29	Q3:	0	87	147
176	14	Q1:	1	39
177	27	Q0:	0	52
178	19	Q4:	2
179	29	Q2:	3	141
180	24	Q1:	3	133	10
181	16	Q2:	1	39
182	17	Q1:	0	144	127
183	29	Q1:	3	161
184	34	Q4:	0
185	24	Q1:	1	88
186	16	Q2:	3
187	31	Q4:	2
188	35	Q3:	0
189	18	Q2:	1
190	22	Q1:	3
191	27	Q3:	1	40	190
192	37	Q1:	3
193	13	Q0:	0	129
194	24	Q3:	1
195	38	Q2:	3
196	26	Q2:	1	33
197	33	Q1:	3	48
198	10	Q2:	1	5
199	18	Q0:	0	26
200	38	Q2:	1
========================================================== 